POSCAR generated by DeepH-dock 
1.0
  10.9375 0.0 0.0
  0.0 10.9375 0.0
  0.0 0.0 10.9375
Si
64
Cartesian
  5.0052734353125 4.4087531260937505 8.33592812390625
  4.9733796875 4.35532344078125 2.8082031271875
  4.9131796853125005 10.04363281359375 8.30954687828125
  4.79522969078125 9.7722187521875 2.8299359342187502
  10.5439468771875 4.39141718640625 8.43592968640625
  10.368760941875 4.318365621718749 2.8372421842187503
  10.39933124453125 9.912240625 8.373804686406249
  10.306460941875 9.930364058125 2.7716828103125
  6.441859375 5.830923437499999 9.509882816875
  6.3541625021875 5.7478093728125 4.11602187828125
  6.203760936406249 0.45692499781249996 9.75780312390625
  6.2089124978125 0.1808624978125 4.31321406140625
  0.8656265625 5.82858280703125 9.943346870625
  0.70319374890625 5.658635934218751 4.402475
  0.7078421874999999 0.36566250109375 9.697231251093749
  0.63301874671875 0.3411406228125 4.3271374978125
  4.797428129375 7.11015156359375 10.92155312609375
  4.97243906359375 6.9868093771875 5.583014059218749
  4.828293753281249 1.91126249890625 0.06478281031250001
  4.831071875 1.6819468760937502 5.676474995625
  10.40390312390625 7.146704689687501 0.22267656578125
  10.4550796896875 7.16175469078125 5.79391093859375
  10.406834375 1.8506140646875 0.11144218859374999
  10.274971875 1.8535015668750001 5.47142969078125
  8.934045310312499 5.739081247812501 1.5064109396875
  9.093328120625001 5.682009378281251 7.0677578125
  8.912235933125 0.49509687171874994 1.405665625
  9.02613906140625 0.3157 6.824332813593751
  3.4501906293749998 5.941917183125 1.4940406206249999
  3.474099995625 5.7363687467187505 6.9694296875
  3.4993218771875 0.259721875 1.4250687532812498
  3.4842390668750003 0.52422343859375 7.07685780921875
  6.140575002187501 8.35374531578125 1.3838015668749999
  6.285442185312499 8.4435749978125 6.8700406271875
  6.3841312521875 3.0744656282812497 1.3889968771875
  6.09765625 3.1022906195312503 6.9402375
  0.85672343640625 8.5519656228125 1.54838905921875
  1.01821562609375 8.634543745625 7.104693751093751
  1.0238265592187499 3.14033125328125 1.31457812828125
  0.78200937609375 3.2986406304687503 6.6164984375
  8.930589066875001 8.755950004375 9.873237498906251
  9.050846870625 8.54208906359375 4.34164062609375
  9.0743515646875 2.9759187521875 9.629495308125
  8.769567188593749 3.1008578146875 4.2182109396875
  3.462725 8.665835941874999 9.6410890646875
  3.51509375109375 8.478870309218749 4.2464406228125
  3.4529796907812496 3.0011734331250004 9.426473441875
  3.49025469078125 2.86508906578125 3.9253593706250003
  7.54822031578125 4.418870316875 10.89687812609375
  7.52420155921875 4.443512495625 5.6997609396875
  7.3817734353125 10.01624531359375 0.244179691875
  7.757006245625 9.77516093421875 5.7005375021875
  2.4074203146875 4.54820624671875 0.0244124978125
  2.39790468640625 4.4289656271875 5.31121718640625
  2.0116687521875 9.997684379375 0.029421878281249998
  2.2273890603125 9.977843748906249 5.586164062500001
  7.90714530921875 7.3689328146875 8.30416562609375
  7.64392344078125 7.2765875021875 2.7815374999999998
  7.56824687609375 1.6875578092187498 8.14572499890625
  7.4848265603125 1.5773078157812501 2.902112504375
  2.10125781359375 7.1737093782812495 8.394126558125
  1.958928120625 7.17317343640625 3.0975656206249997
  1.73373593421875 1.74604062390625 8.10522343640625
  1.88074687609375 1.4095374999999999 2.721840629375
